# Solution for model GasLib-40
# Objective value = 6.9901407103474014e+01
loadshed[innode_1] 0
loadshed[innode_2] 0
loadshed[innode_3] 0
loadshed[innode_4] 0
loadshed[innode_5] 0
loadshed[innode_6] 0
loadshed[innode_7] 0
loadshed[innode_8] 0
loadshed[source_1] -5.0985430440670276e-02
loadshed[source_2] 2.2524277234404189e-01
loadshed[source_3] 2.6790398570027951e-01
loadshed[sink_1] 4.8649764013360797e-01
loadshed[sink_2] 0
loadshed[sink_3] 0
loadshed[sink_4] 0
loadshed[sink_5] 8.4428993521418194e-01
loadshed[sink_6] 0
loadshed[sink_7] 0
loadshed[sink_8] 0
loadshed[sink_9] 0
loadshed[sink_10] 0
loadshed[sink_11] 0
loadshed[sink_12] 1
loadshed[sink_13] 0
loadshed[sink_14] 0
loadshed[sink_15] 0
loadshed[sink_16] 0
loadshed[sink_17] 0
loadshed[sink_18] 0
loadshed[sink_19] 0
loadshed[sink_20] 0
loadshed[sink_21] 1
loadshed[sink_22] 0
loadshed[sink_23] 0
loadshed[sink_24] 9.4343859148883757e-01
loadshed[sink_25] 0
loadshed[sink_26] 0
loadshed[sink_27] 0
loadshed[sink_28] 0
loadshed[sink_29] 0
flow[source_1,sink_3] 1.6615057863876291e+02
flow[innode_1,sink_16] 1.6354166666666970e+01
flow[innode_6,sink_13] -1.2580955939804994e+00
flow[sink_13,sink_14] -1.7612262260647167e+01
flow[sink_14,sink_10] -3.3966428927313871e+01
flow[sink_25,sink_26] 0
flow[sink_26,sink_9] 9.3640259563192686e+01
flow[sink_9,sink_18] 7.7286092896526014e+01
flow[sink_26,sink_4] -1.0999442622985927e+02
flow[sink_4,sink_20] -9.7247554041617263e+01
flow[sink_18,sink_6] 6.0931926229859343e+01
flow[sink_25,innode_8] -1.3344224530542658e+02
flow[sink_6,sink_7] 1.9825689719544386e+01
flow[sink_6,sink_22] 2.4752069843648286e+01
flow[sink_7,sink_24] 9.2501470169297062e-01
flow[sink_22,sink_1] 8.39790317698162
flow[sink_24,sink_21] 0
flow[sink_21,sink_12] 0
flow[sink_7,sink_5] 2.5465083511847331e+00
flow[sink_5,sink_17] 0
flow[sink_17,sink_4] 2.9101038854908609e+01
flow[sink_17,sink_8] -4.5455205521575309e+01
flow[sink_3,sink_23] 16.3541666666697
flow[sink_8,sink_20] -6.1809372188241980e+01
flow[sink_25,sink_20] 1.7541109289652601e+02
flow[sink_25,sink_15] -5.7064918663785491e+01
flow[sink_15,sink_29] -7.3419085330452162e+01
flow[sink_29,sink_28] 1.6354166666667879e+01
flow[sink_29,sink_2] 1.6354166666684250e+01
flow[sink_2,sink_15] 0
flow[sink_29,innode_7] -1.2248158533047143e+02
flow[innode_4,sink_19] 4.4721087354287647e+01
flow[sink_19,innode_3] 4.0517766851610872e+01
flow[innode_4,innode_5] 7.1016174906359083e+01
flow[sink_27,innode_5] -7.1016174906359083e+01
flow[sink_27,sink_19] 5.4662008239692454e+01
flow[sink_10,sink_11] 3.2708333333333641e+01
flow[sink_10,innode_2] -4.2511162075703282e+01
flow[sink_10,innode_3] -4.0517766851610872e+01
flow[innode_6,sink_25] 1.2580955939804994e+00
flow[sink_11,innode_1] 1.6354166666666970e+01
flow[sink_19,innode_2] 4.2511162075703282e+01
flow[source_3,innode_4] 1.1573726226064679e+02
flow[source_2,innode_7] 1.2248158533047143e+02
flow[sink_3,innode_8] 1.3344224530542658e+02
pressure[innode_1] 7.6802893001143573e+01
pressure[innode_2] 7.9201484801297767e+01
pressure[innode_3] 7.9111762794744237e+01
pressure[innode_4] 81.01325
pressure[innode_5] 8.0964401330204907e+01
pressure[innode_6] 7.5309575599999647e+01
pressure[innode_7] 81.01325
pressure[innode_8] 8.0457872087432250e+01
pressure[source_1] 81.01325
pressure[source_2] 81.01325
pressure[source_3] 81.01325
pressure[sink_1] 1.0132500000000002e+00
pressure[sink_2] 77.3230779150055
pressure[sink_3] 8.0457872087432250e+01
pressure[sink_4] 2.6357574656644964e+01
pressure[sink_5] 1.01325
pressure[sink_6] 2.3444823720905155e+00
pressure[sink_7] 2.0723229095330096e+00
pressure[sink_8] 2.9184863398019253e+01
pressure[sink_9] 6.7679874137828033e+00
pressure[sink_10] 7.6954594308747119e+01
pressure[sink_11] 7.6802893001143573e+01
pressure[sink_12] 1.01325
pressure[sink_13] 7.5316511270761950e+01
pressure[sink_14] 7.5348029914310473e+01
pressure[sink_15] 7.5586396060821741e+01
pressure[sink_16] 75.7812431663259
pressure[sink_17] 2.7469720403970136e+01
pressure[sink_18] 3.9715462206135239e+00
pressure[sink_19] 7.9201484801297767e+01
pressure[sink_20] 3.3492107397585720e+01
pressure[sink_21] 1.01325
pressure[sink_22] 1.5594979649523357e+00
pressure[sink_23] 8.0293154075772463e+01
pressure[sink_24] 1.01325
pressure[sink_25] 7.5309575599999647e+01
pressure[sink_26] 1.2372598627497041e+01
pressure[sink_27] 8.0375098302263638e+01
pressure[sink_28] 7.7442065139851977e+01
pressure[sink_29] 7.7737347413469152e+01
interdiction[source_1,sink_3] 0
interdiction[innode_1,sink_16] 0
interdiction[innode_6,sink_13] 0
interdiction[sink_13,sink_14] 0
interdiction[sink_14,sink_10] 0
interdiction[sink_25,sink_26] 1
interdiction[sink_26,sink_9] 0
interdiction[sink_9,sink_18] 0
interdiction[sink_26,sink_4] 0
interdiction[sink_4,sink_20] 0
interdiction[sink_18,sink_6] 0
interdiction[sink_25,innode_8] 0
interdiction[sink_6,sink_7] 0
interdiction[sink_6,sink_22] 0
interdiction[sink_7,sink_24] 0
interdiction[sink_22,sink_1] 0
interdiction[sink_24,sink_21] 0
interdiction[sink_21,sink_12] 0
interdiction[sink_7,sink_5] 0
interdiction[sink_5,sink_17] 1
interdiction[sink_17,sink_4] 0
interdiction[sink_17,sink_8] 0
interdiction[sink_3,sink_23] 0
interdiction[sink_8,sink_20] 0
interdiction[sink_25,sink_20] 0
interdiction[sink_25,sink_15] 0
interdiction[sink_15,sink_29] 0
interdiction[sink_29,sink_28] 0
interdiction[sink_29,sink_2] 0
interdiction[sink_2,sink_15] 1
interdiction[sink_29,innode_7] 0
interdiction[innode_4,sink_19] 0
interdiction[sink_19,innode_3] 0
interdiction[innode_4,innode_5] 0
interdiction[sink_27,innode_5] 0
interdiction[sink_27,sink_19] 0
interdiction[sink_10,sink_11] 0
interdiction[sink_10,innode_2] 0
interdiction[sink_10,innode_3] 0
interdiction[innode_6,sink_25] 0
interdiction[sink_11,innode_1] 0
interdiction[sink_19,innode_2] 0
interdiction[source_3,innode_4] 0
interdiction[source_2,innode_7] 0
interdiction[sink_3,innode_8] 0
WCcheckFlow[source_1,sink_3] 39
WCcheckFlow[innode_1,sink_16] 1
WCcheckFlow[innode_6,sink_13] 13
WCcheckFlow[sink_13,sink_14] 12
WCcheckFlow[sink_14,sink_10] 11
WCcheckFlow[sink_25,sink_26] 0
WCcheckFlow[sink_26,sink_9] 10
WCcheckFlow[sink_9,sink_18] 9
WCcheckFlow[sink_26,sink_4] -11
WCcheckFlow[sink_4,sink_20] -14
WCcheckFlow[sink_18,sink_6] 8
WCcheckFlow[sink_25,innode_8] -36
WCcheckFlow[sink_6,sink_7] 5
WCcheckFlow[sink_6,sink_22] 2
WCcheckFlow[sink_7,sink_24] 3
WCcheckFlow[sink_22,sink_1] 1
WCcheckFlow[sink_24,sink_21] 2
WCcheckFlow[sink_21,sink_12] 1
WCcheckFlow[sink_7,sink_5] 1
WCcheckFlow[sink_5,sink_17] 0
WCcheckFlow[sink_17,sink_4] -2
WCcheckFlow[sink_17,sink_8] 1
WCcheckFlow[sink_3,sink_23] 1
WCcheckFlow[sink_8,sink_20] 0
WCcheckFlow[sink_25,sink_20] 15
WCcheckFlow[sink_25,sink_15] 6
WCcheckFlow[sink_15,sink_29] 5
WCcheckFlow[sink_29,sink_28] 1
WCcheckFlow[sink_29,sink_2] 1
WCcheckFlow[sink_2,sink_15] 0
WCcheckFlow[sink_29,innode_7] 2
WCcheckFlow[innode_4,sink_19] -4
WCcheckFlow[sink_19,innode_3] -5
WCcheckFlow[innode_4,innode_5] 2
WCcheckFlow[sink_27,innode_5] -1
WCcheckFlow[sink_27,sink_19] 0
WCcheckFlow[sink_10,sink_11] 3
WCcheckFlow[sink_10,innode_2] 1
WCcheckFlow[sink_10,innode_3] 6
WCcheckFlow[innode_6,sink_25] -14
WCcheckFlow[sink_11,innode_1] 2
WCcheckFlow[sink_19,innode_2] 0
WCcheckFlow[source_3,innode_4] -1
WCcheckFlow[source_2,innode_7] -1
WCcheckFlow[sink_3,innode_8] 37
